0 0 0 0
0 1 2 0
0 2 0 0
0 3 1 0
0 4 0 7
0 5 0 9
0 6 0 18
0 7 0 11
0 8 0 22
0 9 1 13
0 10 1 20
0 11 0 23
0 12 0 12
0 13 0 11
0 14 0 23
0 15 2 13
0 16 0 26
0 17 0 33
0 18 0 32
0 19 0 25
0 20 1 26
0 21 0 34
0 22 2 23
0 23 0 35
0 24 2 33
0 25 1 34
0 26 0 36
0 27 0 30
0 28 0 39
0 29 0 43
0 30 0 39
0 31 0 46
